; test name: testReduceNot
;Translating sql query: SELECT * FROM (SELECT CASE WHEN EMP.SAL > 1000 THEN NULL ELSE FALSE END AS CASECOL FROM EMP AS EMP) AS t WHERE NOT t.CASECOL
;Translating sql query: SELECT * FROM (SELECT CASE WHEN EMP0.SAL > 1000 THEN NULL ELSE TRUE END AS CASECOL FROM EMP AS EMP0) AS t1 WHERE NOT t1.CASECOL

(set-logic HO_ALL)
(set-option :produce-models true)
(set-option :debug-check-models true)
(set-option :dag-thresh 0)
(set-option :uf-lazy-ll true)
(set-option :fmf-bound true)
(set-option :tlimit-per 6000)
(set-option :strings-exp true)
(set-option :simplification none)

(declare-const EMP (Bag (Tuple (Nullable Int) (Nullable String) (Nullable String) (Nullable Int) (Nullable Int) (Nullable Int) (Nullable Int) (Nullable Int) (Nullable Int))))
(declare-const q1 (Bag (Tuple (Nullable Bool))))
(declare-const p1 (-> (Tuple (Nullable Bool)) Bool))
(declare-const q2 (Bag (Tuple (Nullable Bool))))
(declare-const p3 (-> (Tuple (Nullable Bool)) Bool))
(declare-const f0 (-> (Tuple (Nullable Int) (Nullable String) (Nullable String) (Nullable Int) (Nullable Int) (Nullable Int) (Nullable Int) (Nullable Int) (Nullable Int)) (Tuple (Nullable Bool))))
(declare-const f2 (-> (Tuple (Nullable Int) (Nullable String) (Nullable String) (Nullable Int) (Nullable Int) (Nullable Int) (Nullable Int) (Nullable Int) (Nullable Int)) (Tuple (Nullable Bool))))
(assert 
  (= 
    f0 
    (lambda 
      ((t (Tuple (Nullable Int) (Nullable String) (Nullable String) (Nullable Int) (Nullable Int) (Nullable Int) (Nullable Int) (Nullable Int) (Nullable Int)))) 
      (tuple 
        (ite
          (and 
            (nullable.is_some ((_ tuple.select 6) t))
            (> 
              (nullable.val ((_ tuple.select 6) t))
              1000)) 
          (as nullable.null (Nullable Bool))
          (nullable.some false))))))
(assert (= p1 (lambda ((t (Tuple (Nullable Bool)))) (and (nullable.is_some ((_ tuple.select 0) t)) (not (nullable.val ((_ tuple.select 0) t)))))))
(assert 
  (= 
    f2 
    (lambda 
      ((t (Tuple (Nullable Int) (Nullable String) (Nullable String) (Nullable Int) (Nullable Int) (Nullable Int) (Nullable Int) (Nullable Int) (Nullable Int)))) 
      (tuple 
        (ite
          (and 
            (nullable.is_some ((_ tuple.select 6) t))
            (> 
              (nullable.val ((_ tuple.select 6) t))
              1000)) 
          (as nullable.null (Nullable Bool))
          (nullable.some true))))))
(assert (not (= q1 q2)))
(assert (= p3 (lambda ((t (Tuple (Nullable Bool)))) (and (nullable.is_some ((_ tuple.select 0) t)) (not (nullable.val ((_ tuple.select 0) t)))))))
(assert (= q1 ((_ table.project 0) (bag.filter p1 (bag.map f0 EMP)))))
(assert (= q2 ((_ table.project 0) (bag.filter p3 (bag.map f2 EMP)))))
(check-sat)